(set-logic BV)

(synth-fun deobfucated ( (e (BitVec 64))  (b (BitVec 64))  ) (BitVec 64)
	(
		(Start (BitVec 64)
			(
				(bvnot Start)
				(bvxor Start Start)
				(bvand Start Start)
				(bvor Start Start)
				(bvneg Start)
				(bvadd Start Start)
				(bvmul Start Start)
				(bvsub Start Start)
				e b
			)
		)
	)
)

(constraint (= (deobfucated #x000000001a87f4fa #x000000001f3b2a54) #xffffffffdec7f5fc))
(constraint (= (deobfucated #x000000002d3d753e #x000000000ba935b2) #xffffffffef3df540))
(constraint (= (deobfucated #x000000003b3d0cfc #x00000000289af4b1) #xffffffffbf7d0f00))
(constraint (= (deobfucated #x000000002c66436b #x00000000098ad616) #xffffffffee76e7f0))
(constraint (= (deobfucated #x000000001e915678 #x0000000017d37a27) #xffffffffdf9b7800))
(constraint (= (deobfucated #x000000001386f931 #x000000000d9d2e93) #xfffffffff3def97c))
(constraint (= (deobfucated #x0000000001c82b52 #x000000001817e935) #xffffffffe7efeffc))
(constraint (= (deobfucated #x00000000181d67c9 #x0000000036a306fa) #xffffffffb95ff7fe))
(constraint (= (deobfucated #x0000000012d24370 #x0000000031ade6ed) #xffffffffbfd3d800))
(constraint (= (deobfucated #x000000000c9348cf #x000000000ba169d8) #xffffffffefdf4de0))
(constraint (= (deobfucated #x000000002afbeeda #x00000000071d107e) #xfffffffffefbf000))
(constraint (= (deobfucated #x0000000012aaeff7 #x000000000bdd38a1) #xfffffffff3bb0000))
(constraint (= (deobfucated #x0000000039c833fd #x00000000024acb57) #xfffffffffded3400))
(constraint (= (deobfucated #x000000002fafb481 #x000000000161ce3d) #xffffffffffffbdc2))
(constraint (= (deobfucated #x0000000029b44168 #x000000001ab78aa1) #xfffffffffdb47580))
(constraint (= (deobfucated #x000000001dd1d700 #x000000003a15d30a) #xffffffffbdd9e000))
(constraint (= (deobfucated #x0000000008d74cea #x0000000005a7d9d3) #xfffffffff9d7ddec))
(constraint (= (deobfucated #x000000001c1fa19d #x000000002f73f423) #xffffffffdc7febe0))
(constraint (= (deobfucated #x000000001faeead9 #x000000000d352fe2) #xffffffffffaeefde))
(constraint (= (deobfucated #x0000000006064846 #x000000001b383ab1) #xffffffffe6c7fd50))
(check-synth)